p wcnf 156 78 79 
1 -118 -108 0 
1 72 133 0 
1 -90 -15 0 
1 -121 -145 0 
1 111 -125 0 
1 -99 -136 0 
1 153 -97 0 
1 90 58 0 
1 25 -127 0 
1 -70 132 0 
1 -88 96 0 
1 -115 -66 0 
1 134 103 0 
1 -58 -64 0 
1 -45 -96 0 
1 8 -39 0 
1 -40 -91 0 
1 150 82 0 
1 -42 -35 0 
1 -118 -5 0 
1 67 -85 0 
1 -77 -2 0 
1 -83 66 0 
1 117 52 0 
1 -148 134 0 
1 132 34 0 
1 -3 26 0 
1 13 94 0 
1 125 24 0 
1 77 71 0 
1 -127 -94 0 
1 -20 -85 0 
1 89 -106 0 
1 -71 66 0 
1 24 115 0 
1 74 43 0 
1 -85 105 0 
1 120 109 0 
1 131 -134 0 
1 88 -79 0 
1 26 126 0 
1 -131 132 0 
1 -78 -155 0 
1 -2 -143 0 
1 63 -142 0 
1 -147 127 0 
1 -23 123 0 
1 -126 45 0 
1 120 106 0 
1 42 28 0 
1 138 75 0 
1 142 86 0 
1 114 -18 0 
1 118 89 0 
1 113 29 0 
1 -13 -101 0 
1 79 -53 0 
1 -23 71 0 
1 -7 -79 0 
1 -61 -109 0 
1 -153 128 0 
1 105 4 0 
1 -71 -12 0 
1 110 12 0 
1 -139 10 0 
1 89 137 0 
1 -132 -99 0 
1 11 138 0 
1 92 -72 0 
1 -113 31 0 
1 -145 94 0 
1 -46 91 0 
1 -143 41 0 
1 61 70 0 
1 -156 -35 0 
1 41 -106 0 
1 107 -44 0 
1 -22 150 0 
